# Solution for model FSG
# Objective value = 2.8505101236700743e+03
x_0_1 0
x_0_2 0
x_0_3 1
x_0_4 1
x_0_5 0
x_0_6 0
x_0_7 0
x_1_2 0
x_1_3 0
x_1_4 0
x_1_5 0
x_1_6 1
x_1_7 0
x_2_1 0
x_2_3 0
x_2_4 0
x_2_5 0
x_2_6 0
x_2_7 1
x_3_1 1
x_3_2 0
x_3_4 0
x_3_5 0
x_3_6 0
x_3_7 0
x_4_1 0
x_4_2 0
x_4_3 0
x_4_5 1
x_4_6 0
x_4_7 0
x_5_1 0
x_5_2 1
x_5_3 0
x_5_4 0
x_5_6 0
x_5_7 0
U_1_1 0
U_1_2 0
U_1_3 1
U_2_1 0
U_2_2 0
U_2_3 1
U_3_1 0
U_3_2 0
U_3_3 1
U_4_1 0
U_4_2 1
U_4_3 0
U_5_1 0
U_5_2 1
U_5_3 0
U_6_1 0
U_6_2 0
U_6_3 1
U_7_1 0
U_7_2 0
U_7_3 1
TBar_0 0
TBar_1 3.4351241202231840e+01
TBar_2 3.3184493680320308e+01
TBar_3 30
TBar_4 15
TBar_5 1.7733861737542703e+01
TBar_6 4.3712656693491695e+01
TBar_7 4.4089630084785867e+01
y_0_1_1 0
y_0_1_2 0
y_0_1_3 0
y_0_1_4 0
y_0_1_5 0
y_0_2_1 0
y_0_2_2 0
y_0_2_3 0
y_0_2_4 0
y_0_2_5 0
y_0_3_1 0
y_0_3_2 0
y_0_3_3 0
y_0_3_4 0
y_0_3_5 0
y_0_4_1 0
y_0_4_2 0
y_0_4_3 0
y_0_4_4 0
y_0_4_5 0
y_0_5_1 0
y_0_5_2 0
y_0_5_3 0
y_0_5_4 0
y_0_5_5 0
y_0_6_1 0
y_0_6_2 0
y_0_6_3 0
y_0_6_4 0
y_0_6_5 0
y_0_7_1 0
y_0_7_2 0
y_0_7_3 0
y_0_7_4 0
y_0_7_5 0
y_1_2_1 0
y_1_2_2 0
y_1_2_3 0
y_1_2_4 0
y_1_2_5 0
y_1_3_1 0
y_1_3_2 0
y_1_3_3 0
y_1_3_4 0
y_1_3_5 0
y_1_4_1 0
y_1_4_2 0
y_1_4_3 0
y_1_4_4 0
y_1_4_5 0
y_1_5_1 0
y_1_5_2 0
y_1_5_3 0
y_1_5_4 0
y_1_5_5 0
y_1_6_1 1
y_1_6_2 1
y_1_6_3 1
y_1_6_4 1
y_1_6_5 1
y_1_7_1 0
y_1_7_2 0
y_1_7_3 0
y_1_7_4 0
y_1_7_5 0
y_2_1_1 0
y_2_1_2 0
y_2_1_3 0
y_2_1_4 0
y_2_1_5 0
y_2_3_1 0
y_2_3_2 0
y_2_3_3 0
y_2_3_4 0
y_2_3_5 0
y_2_4_1 0
y_2_4_2 0
y_2_4_3 0
y_2_4_4 0
y_2_4_5 0
y_2_5_1 0
y_2_5_2 0
y_2_5_3 0
y_2_5_4 0
y_2_5_5 0
y_2_6_1 0
y_2_6_2 0
y_2_6_3 0
y_2_6_4 0
y_2_6_5 0
y_2_7_1 1
y_2_7_2 1
y_2_7_3 1
y_2_7_4 1
y_2_7_5 1
y_3_1_1 0
y_3_1_2 0
y_3_1_3 1
y_3_1_4 0
y_3_1_5 1
y_3_2_1 0
y_3_2_2 0
y_3_2_3 0
y_3_2_4 0
y_3_2_5 0
y_3_4_1 0
y_3_4_2 0
y_3_4_3 0
y_3_4_4 0
y_3_4_5 0
y_3_5_1 0
y_3_5_2 0
y_3_5_3 0
y_3_5_4 0
y_3_5_5 0
y_3_6_1 0
y_3_6_2 0
y_3_6_3 0
y_3_6_4 0
y_3_6_5 0
y_3_7_1 0
y_3_7_2 0
y_3_7_3 0
y_3_7_4 0
y_3_7_5 0
y_4_1_1 0
y_4_1_2 0
y_4_1_3 0
y_4_1_4 0
y_4_1_5 0
y_4_2_1 0
y_4_2_2 0
y_4_2_3 0
y_4_2_4 0
y_4_2_5 0
y_4_3_1 0
y_4_3_2 0
y_4_3_3 0
y_4_3_4 0
y_4_3_5 0
y_4_5_1 1
y_4_5_2 0
y_4_5_3 1
y_4_5_4 0
y_4_5_5 0
y_4_6_1 0
y_4_6_2 0
y_4_6_3 0
y_4_6_4 0
y_4_6_5 0
y_4_7_1 0
y_4_7_2 0
y_4_7_3 0
y_4_7_4 0
y_4_7_5 0
y_5_1_1 0
y_5_1_2 0
y_5_1_3 0
y_5_1_4 0
y_5_1_5 0
y_5_2_1 1
y_5_2_2 1
y_5_2_3 1
y_5_2_4 1
y_5_2_5 1
y_5_3_1 0
y_5_3_2 0
y_5_3_3 0
y_5_3_4 0
y_5_3_5 0
y_5_4_1 0
y_5_4_2 0
y_5_4_3 0
y_5_4_4 0
y_5_4_5 0
y_5_6_1 0
y_5_6_2 0
y_5_6_3 0
y_5_6_4 0
y_5_6_5 0
y_5_7_1 0
y_5_7_2 0
y_5_7_3 0
y_5_7_4 0
y_5_7_5 0
Q_0_1 0
Q_0_2 0
Q_0_3 0
Q_0_4 0
Q_0_5 0
Q_1_1 1.6772000000000003e+02
Q_1_2 168.645
Q_1_3 175.91
Q_1_4 167.005
Q_1_5 178.63
Q_2_1 2.8542000000000053e+02
Q_2_2 2.9373500000000058e+02
Q_2_3 3.0521000000000060e+02
Q_2_4 3.1098000000000059e+02
Q_2_5 3.0356000000000057e+02
Q_3_1 9.9544999999999362e+01
Q_3_2 9.2514999999999347e+01
Q_3_3 1.0006999999999934e+02
Q_3_4 9.0094999999999345e+01
Q_3_5 1.0277999999999935e+02
Q_4_1 1.0378999999999999e+02
Q_4_2 91.44
Q_4_3 102.22
Q_4_4 98.365
Q_4_5 9.6539999999999992e+01
Q_5_1 1.7401999999999978e+02
Q_5_2 1.7166999999999979e+02
Q_5_3 1.8849499999999978e+02
Q_5_4 1.8576999999999978e+02
Q_5_5 1.8092999999999978e+02
Q_6_1 1.6772000000000003e+02
Q_6_2 168.645
Q_6_3 175.91
Q_6_4 167.005
Q_6_5 178.63
Q_7_1 2.8542000000000053e+02
Q_7_2 2.9373500000000058e+02
Q_7_3 3.0521000000000060e+02
Q_7_4 3.1098000000000059e+02
Q_7_5 3.0356000000000057e+02
R_6_1 6.7720000000000027e+01
R_6_2 6.8645000000000010e+01
R_6_3 75.91
R_6_4 67.005
R_6_5 78.63
R_7_1 1.8542000000000053e+02
R_7_2 1.9373500000000058e+02
R_7_3 2.0521000000000060e+02
R_7_4 2.1098000000000059e+02
R_7_5 2.0356000000000057e+02
L_1_1 0
L_1_2 0
L_1_3 0
L_1_4 0
L_1_5 0
L_2_1 0
L_2_2 0
L_2_3 0
L_2_4 0
L_2_5 0
L_3_1 0
L_3_2 0
L_3_3 0
L_3_4 0
L_3_5 0
L_4_1 4.725
L_4_2 5.48
L_4_3 4.425
L_4_4 5.38
L_4_5 3.95
L_5_1 6.99
L_5_2 7.115
L_5_3 5.205
L_5_4 4.455
L_5_5 6.025
rho_1_1 1
rho_1_2 1
rho_1_3 1
rho_1_4 1
rho_1_5 1
rho_2_1 1
rho_2_2 1
rho_2_3 1
rho_2_4 1
rho_2_5 1
rho_3_1 0
rho_3_2 0
rho_3_3 1
rho_3_4 0
rho_3_5 1
rho_4_1 1
rho_4_2 0
rho_4_3 1
rho_4_4 0
rho_4_5 0
rho_5_1 1
rho_5_2 1
rho_5_3 1
rho_5_4 1
rho_5_5 1
lambd_1_1 0
lambd_1_2 0
lambd_1_3 0
lambd_1_4 0
lambd_1_5 0
lambd_2_1 0
lambd_2_2 0
lambd_2_3 0
lambd_2_4 0
lambd_2_5 0
lambd_3_1 0
lambd_3_2 0
lambd_3_3 0
lambd_3_4 0
lambd_3_5 0
lambd_4_1 0
lambd_4_2 0
lambd_4_3 0
lambd_4_4 0
lambd_4_5 0
lambd_5_1 0
lambd_5_2 0
lambd_5_3 0
lambd_5_4 0
lambd_5_5 0
alpha_1_1 1
alpha_1_2 1
alpha_1_3 0
alpha_1_4 1
alpha_1_5 0
alpha_2_1 0
alpha_2_2 0
alpha_2_3 0
alpha_2_4 0
alpha_2_5 0
alpha_3_1 0
alpha_3_2 0
alpha_3_3 1
alpha_3_4 0
alpha_3_5 1
alpha_4_1 1
alpha_4_2 0
alpha_4_3 1
alpha_4_4 0
alpha_4_5 0
alpha_5_1 0
alpha_5_2 1
alpha_5_3 0
alpha_5_4 1
alpha_5_5 1
